(set-info :smt-lib-version 2.6)
(set-logic QF_LRA)
(set-info :source | Clock Synchronization. Bruno Dutertre (bruno@csl.sri.com) |)
(set-info :category "industrial")
(set-info :status unsat)
(declare-fun x_0 () Real)
(declare-fun x_1 () Real)
(declare-fun x_2 () Real)
(declare-fun x_3 () Real)
(declare-fun x_4 () Real)
(declare-fun x_5 () Real)
(declare-fun x_6 () Real)
(declare-fun x_7 () Real)
(declare-fun x_8 () Real)
(declare-fun x_9 () Real)
(declare-fun x_10 () Real)
(declare-fun x_11 () Real)
(declare-fun x_12 () Real)
(declare-fun x_13 () Real)
(declare-fun x_14 () Real)
(declare-fun x_15 () Real)
(declare-fun x_16 () Real)
(declare-fun x_17 () Real)
(declare-fun x_18 () Real)
(declare-fun x_19 () Real)
(declare-fun x_20 () Real)
(declare-fun x_21 () Real)
(declare-fun x_22 () Real)
(declare-fun x_23 () Real)
(declare-fun x_24 () Real)
(declare-fun x_25 () Real)
(declare-fun x_26 () Real)
(declare-fun x_27 () Real)
(declare-fun x_28 () Real)
(declare-fun x_29 () Real)
(declare-fun x_30 () Real)
(declare-fun x_31 () Real)
(declare-fun x_32 () Real)
(declare-fun x_33 () Real)
(declare-fun x_34 () Real)
(declare-fun x_35 () Real)
(declare-fun x_36 () Real)
(declare-fun x_37 () Real)
(declare-fun x_38 () Real)
(declare-fun x_39 () Real)
(declare-fun x_40 () Real)
(declare-fun x_41 () Real)
(declare-fun x_42 () Real)
(declare-fun x_43 () Real)
(declare-fun x_44 () Real)
(declare-fun x_45 () Real)
(declare-fun x_46 () Real)
(declare-fun x_47 () Real)
(declare-fun x_48 () Real)
(declare-fun x_49 () Real)
(declare-fun x_50 () Real)
(declare-fun x_51 () Real)
(declare-fun x_52 () Real)
(declare-fun x_53 () Real)
(declare-fun x_54 () Real)
(declare-fun x_55 () Real)
(declare-fun x_56 () Real)
(declare-fun x_57 () Real)
(declare-fun x_58 () Real)
(declare-fun x_59 () Real)
(declare-fun x_60 () Real)
(declare-fun x_61 () Real)
(declare-fun x_62 () Real)
(declare-fun x_63 () Real)
(declare-fun x_64 () Real)
(declare-fun x_65 () Real)
(declare-fun x_66 () Real)
(declare-fun x_67 () Real)
(declare-fun x_68 () Real)
(declare-fun x_69 () Real)
(declare-fun x_70 () Real)
(declare-fun x_71 () Real)
(declare-fun x_72 () Real)
(declare-fun x_73 () Real)
(declare-fun x_74 () Real)
(declare-fun x_75 () Real)
(declare-fun x_76 () Real)
(declare-fun x_77 () Real)
(declare-fun x_78 () Real)
(declare-fun x_79 () Real)
(declare-fun x_80 () Real)
(declare-fun x_81 () Real)
(declare-fun x_82 () Real)
(declare-fun x_83 () Real)
(declare-fun x_84 () Real)
(declare-fun x_85 () Real)
(declare-fun x_86 () Real)
(declare-fun x_87 () Real)
(declare-fun x_88 () Real)
(declare-fun x_89 () Real)
(declare-fun x_90 () Real)
(assert (let ((?v_109 (= x_82 x_26)) (?v_108 (= x_71 x_35)) (?v_107 (= x_74 x_32)) (?v_93 (= x_72 x_30)) (?v_92 (= x_69 x_33)) (?v_94 (= x_83 x_24)) (?v_100 (= x_73 x_31)) (?v_101 (= x_70 x_34)) (?v_102 (= x_84 x_25)) (?v_145 (<= x_75 x_0)) (?v_146 (<= x_76 x_0)) (?v_147 (<= x_77 x_0)) (?v_111 (= x_14 x_13)) (?v_114 (= x_14 x_47)) (?v_103 (= x_52 x_21)) (?v_106 (= x_55 x_16)) (?v_83 (+ x_16 1))) (let ((?v_125 (= x_55 ?v_83)) (?v_104 (= x_87 x_29)) (?v_105 (= x_77 x_15)) (?v_120 (= x_16 x_15)) (?v_123 (= x_16 x_48)) (?v_118 (= x_50 x_17)) (?v_90 (= x_85 x_27)) (?v_87 (= x_75 x_10)) (?v_119 (= x_53 x_11)) (?v_96 (= x_51 x_19)) (?v_97 (= x_86 x_28)) (?v_98 (= x_76 x_13)) (?v_99 (= x_54 x_14)) (?v_81 (+ x_11 1))) (let ((?v_91 (= x_53 ?v_81)) (?v_84 (= x_11 x_10)) (?v_88 (= x_11 x_46)) (?v_82 (+ x_14 1))) (let ((?v_116 (= x_54 ?v_82)) (?v_3 (= x_10 x_0)) (?v_2 (+ (+ x_0 x_4) x_1))) (let ((?v_22 (= x_10 ?v_2)) (?v_4 (= x_13 x_0)) (?v_26 (= x_13 ?v_2)) (?v_5 (= x_15 x_0)) (?v_30 (= x_15 ?v_2)) (?v_12 (not ?v_3))) (let ((?v_15 (not ?v_4)) (?v_18 (not ?v_5)) (?v_21 (<= x_11 x_0)) (?v_25 (<= x_14 x_0)) (?v_29 (<= x_16 x_0)) (?v_42 (not ?v_22))) (let ((?v_33 (and ?v_21 ?v_42)) (?v_43 (not ?v_26))) (let ((?v_36 (and ?v_25 ?v_43)) (?v_44 (not ?v_30))) (let ((?v_39 (and ?v_29 ?v_44)) (?v_155 (= x_75 x_81))) (let ((?v_152 (not ?v_155)) (?v_151 (+ (+ x_81 x_4) x_1))) (let ((?v_171 (= x_75 ?v_151)) (?v_158 (= x_76 x_81))) (let ((?v_153 (not ?v_158)) (?v_175 (= x_76 ?v_151)) (?v_161 (= x_77 x_81))) (let ((?v_154 (not ?v_161)) (?v_179 (= x_77 ?v_151)) (?v_170 (not (<= x_53 x_81))) (?v_174 (not (<= x_54 x_81))) (?v_178 (not (<= x_55 x_81)))) (let ((?v_182 (or ?v_170 ?v_171)) (?v_185 (or ?v_174 ?v_175)) (?v_188 (or ?v_178 ?v_179)) (?v_51 (- x_53 x_2))) (let ((?v_127 (<= ?v_51 x_56)) (?v_128 (<= ?v_51 x_57)) (?v_129 (<= ?v_51 x_58)) (?v_52 (- x_54 x_2))) (let ((?v_130 (<= ?v_52 x_59)) (?v_131 (<= ?v_52 x_60)) (?v_132 (<= ?v_52 x_61)) (?v_53 (- x_55 x_2))) (let ((?v_133 (<= ?v_53 x_62)) (?v_134 (<= ?v_53 x_63)) (?v_135 (<= ?v_53 x_64)) (?v_54 (+ x_53 x_2))) (let ((?v_136 (<= x_56 ?v_54)) (?v_137 (<= x_57 ?v_54)) (?v_138 (<= x_58 ?v_54)) (?v_55 (+ x_54 x_2))) (let ((?v_139 (<= x_59 ?v_55)) (?v_140 (<= x_60 ?v_55)) (?v_141 (<= x_61 ?v_55)) (?v_56 (+ x_55 x_2))) (let ((?v_142 (<= x_62 ?v_56)) (?v_143 (<= x_63 ?v_56)) (?v_144 (<= x_64 ?v_56)) (?v_95 (and (not ?v_84) (not ?v_88))) (?v_117 (and (not ?v_111) (not ?v_114))) (?v_126 (and (not ?v_120) (not ?v_123))) (?v_0 (- x_0 x_5)) (?v_1 (- x_0 x_9)) (?v_6 (- x_17 x_18)) (?v_7 (- x_11 x_6)) (?v_8 (- x_19 x_20)) (?v_9 (- x_14 x_7)) (?v_10 (- x_21 x_22)) (?v_11 (- x_16 x_8)) (?v_13 (- x_17 x_24)) (?v_14 (- x_11 x_0)) (?v_16 (- x_19 x_25)) (?v_17 (- x_14 x_0)) (?v_19 (- x_21 x_26)) (?v_20 (- x_16 x_0)) (?v_34 (- x_24 x_18))) (let ((?v_23 (* ?v_34 1000)) (?v_24 (* (- x_24 x_22) 1000)) (?v_27 (* (- x_25 x_18) 1000)) (?v_28 (* (- x_25 x_22) 1000)) (?v_31 (* (- x_26 x_18) 1000)) (?v_40 (- x_26 x_22))) (let ((?v_32 (* ?v_40 1000)) (?v_35 (- x_0 x_6)) (?v_37 (- x_25 x_20)) (?v_38 (- x_0 x_7)) (?v_41 (- x_0 x_8)) (?v_89 (+ x_27 x_1)) (?v_115 (+ x_28 x_1)) (?v_124 (+ x_29 x_1)) (?v_45 (- x_33 x_24)) (?v_47 (- x_34 x_25)) (?v_49 (- x_35 x_26)) (?v_58 (- x_50 x_69)) (?v_59 (- x_53 x_72)) (?v_60 (- x_51 x_70)) (?v_61 (- x_54 x_73)) (?v_62 (- x_52 x_71)) (?v_63 (- x_55 x_74)) (?v_64 (+ x_53 1)) (?v_65 (+ x_54 1)) (?v_66 (+ x_55 1)) (?v_68 (- x_11 x_2)) (?v_69 (- x_14 x_2)) (?v_70 (- x_16 x_2)) (?v_71 (+ x_11 x_2)) (?v_72 (+ x_14 x_2)) (?v_73 (+ x_16 x_2)) (?v_75 (- x_17 x_33)) (?v_76 (- x_11 x_30)) (?v_77 (- x_19 x_34)) (?v_78 (- x_14 x_31)) (?v_79 (- x_21 x_35)) (?v_80 (- x_16 x_32)) (?v_85 (* x_85 2)) (?v_86 (+ x_36 x_42)) (?v_112 (* x_86 2)) (?v_113 (+ x_37 x_43)) (?v_121 (* x_87 2)) (?v_122 (+ x_38 x_44)) (?v_148 (- x_81 x_5)) (?v_149 (- x_81 x_9)) (?v_150 (+ x_81 x_1)) (?v_156 (- x_50 x_66)) (?v_157 (- x_53 x_88)) (?v_159 (- x_51 x_67)) (?v_160 (- x_54 x_89)) (?v_162 (- x_52 x_68)) (?v_163 (- x_55 x_90)) (?v_164 (- x_50 x_83)) (?v_165 (- x_53 x_81)) (?v_166 (- x_51 x_84)) (?v_167 (- x_54 x_81)) (?v_168 (- x_52 x_82)) (?v_169 (- x_55 x_81)) (?v_183 (- x_83 x_66))) (let ((?v_172 (* ?v_183 1000)) (?v_173 (* (- x_83 x_68) 1000)) (?v_176 (* (- x_84 x_66) 1000)) (?v_177 (* (- x_84 x_68) 1000)) (?v_180 (* (- x_82 x_66) 1000)) (?v_189 (- x_82 x_68))) (let ((?v_181 (* ?v_189 1000)) (?v_184 (- x_81 x_88)) (?v_186 (- x_84 x_67)) (?v_187 (- x_81 x_89)) (?v_190 (- x_81 x_90)) (?v_191 (- x_69 x_83)) (?v_192 (- x_70 x_84)) (?v_193 (- x_71 x_82)) (?v_46 (* (* x_1 999) (/ 1 1000))) (?v_48 (* (* x_1 1001) (/ 1 1000))) (?v_50 (+ x_49 (/ 1001 1000))) (?v_57 (+ x_65 (/ 1001 1000))) (?v_67 (+ x_23 (/ 1001 1000))) (?v_74 (+ x_45 (/ 1001 1000))) (?v_110 (+ x_23 (/ 999 1000)))) (and (and (and (and (and (and (and (and (and (and (and (and (and (and (and (and (and (and (and (and (and (and (and (and (and (and (and (and (and (and (and (and (and (and (and (and (and (and (and (and (and (and (and (and (and (and (and (and (and (and (and (and (and (and (and (and (and (and (and (and (and (and (and (and (and (and (and (and (and (and (and (and (and (and (and (and (and (and (and (and (and (and (and (and (and (and (and (and (and (and (and (and (and (and (and (and (and (and (and (and (and (and (and (and (and (and (and (and (and (and (and (and (and (and (and (and (and (and (and (and (and (and (and (and (and (and (and (and (and (and (and (and (and (and (and (and (and (and (and (and (and (and (and (and (and (and (not (<= x_1 0)) (not (<= x_2 0))) (not (< x_3 (+ x_2 (* (* (+ (* (* x_1 1) (/ 1 2)) 1) 1001) (/ 1 999)))))) (not (<= x_4 0))) (< x_5 (- (* (* (- (- x_1 x_3) 1) 999) (/ 1 2)) 1))) (not (< x_5 (* (* (+ (+ (+ x_4 x_2) x_3) (/ 1501 1000)) 1001) (/ 1 999))))) (not (<= x_9 0))) (<= x_9 (- x_4 (+ (+ x_2 (* (* (+ x_1 2) 1001) (/ 1 999))) (/ 1 2))))) (<= ?v_0 x_6)) (<= ?v_0 x_7)) (<= ?v_0 x_8)) (<= x_6 ?v_1)) (<= x_7 ?v_1)) (<= x_8 ?v_1)) (<= (- x_6 x_6) x_3)) (<= (- x_7 x_6) x_3)) (<= (- x_8 x_6) x_3)) (<= (- x_6 x_7) x_3)) (<= (- x_7 x_7) x_3)) (<= (- x_8 x_7) x_3)) (<= (- x_6 x_8) x_3)) (<= (- x_7 x_8) x_3)) (<= (- x_8 x_8) x_3)) (or (and ?v_3 (<= x_11 x_12)) ?v_22)) (or (and ?v_4 (<= x_14 x_12)) ?v_26)) (or (and ?v_5 (<= x_16 x_12)) ?v_30)) (or (or ?v_3 ?v_4) ?v_5)) (or ?v_12 (and (<= (* (* ?v_7 999) (/ 1 1000)) ?v_6) (<= ?v_6 (* (* ?v_7 1001) (/ 1 1000)))))) (or ?v_15 (and (<= (* (* ?v_9 999) (/ 1 1000)) ?v_8) (<= ?v_8 (* (* ?v_9 1001) (/ 1 1000)))))) (or ?v_18 (and (<= (* (* ?v_11 999) (/ 1 1000)) ?v_10) (<= ?v_10 (* (* ?v_11 1001) (/ 1 1000)))))) (or (or ?v_12 ?v_21) (and (and (not (< x_23 x_24)) (<= (* (* ?v_14 999) (/ 1 1000)) ?v_13)) (<= ?v_13 (* (* ?v_14 1001) (/ 1 1000)))))) (or (or ?v_15 ?v_25) (and (and (not (< x_23 x_25)) (<= (* (* ?v_17 999) (/ 1 1000)) ?v_16)) (<= ?v_16 (* (* ?v_17 1001) (/ 1 1000)))))) (or (or ?v_18 ?v_29) (and (and (not (< x_23 x_26)) (<= (* (* ?v_20 999) (/ 1 1000)) ?v_19)) (<= ?v_19 (* (* ?v_20 1001) (/ 1 1000)))))) (or ?v_33 (and (<= x_27 (+ (+ (* (* (+ (+ (+ x_6 (* ?v_23 (/ 1 999))) x_8) (* ?v_24 (/ 1 999))) 1) (/ 1 2)) x_2) (/ 3001 1998))) (not (< x_27 (- (- (* (* (+ (+ (+ x_6 (* ?v_23 (/ 1 1001))) x_8) (* ?v_24 (/ 1 1001))) 1) (/ 1 2)) x_2) (/ 1 2))))))) (or ?v_36 (and (<= x_28 (+ (+ (* (* (+ (+ (+ x_6 (* ?v_27 (/ 1 999))) x_8) (* ?v_28 (/ 1 999))) 1) (/ 1 2)) x_2) (/ 3001 1998))) (not (< x_28 (- (- (* (* (+ (+ (+ x_6 (* ?v_27 (/ 1 1001))) x_8) (* ?v_28 (/ 1 1001))) 1) (/ 1 2)) x_2) (/ 1 2))))))) (or ?v_39 (and (<= x_29 (+ (+ (* (* (+ (+ (+ x_6 (* ?v_31 (/ 1 999))) x_8) (* ?v_32 (/ 1 999))) 1) (/ 1 2)) x_2) (/ 3001 1998))) (not (< x_29 (- (- (* (* (+ (+ (+ x_6 (* ?v_31 (/ 1 1001))) x_8) (* ?v_32 (/ 1 1001))) 1) (/ 1 2)) x_2) (/ 1 2))))))) (or ?v_33 (and (<= (* (* ?v_35 999) (/ 1 1000)) ?v_34) (<= ?v_34 (* (* ?v_35 1001) (/ 1 1000)))))) (or ?v_36 (and (<= (* (* ?v_38 999) (/ 1 1000)) ?v_37) (<= ?v_37 (* (* ?v_38 1001) (/ 1 1000)))))) (or ?v_39 (and (<= (* (* ?v_41 999) (/ 1 1000)) ?v_40) (<= ?v_40 (* (* ?v_41 1001) (/ 1 1000)))))) (or ?v_42 (= x_30 ?v_89))) (or ?v_43 (= x_31 ?v_115))) (or ?v_44 (= x_32 ?v_124))) (or ?v_42 (and (<= ?v_46 ?v_45) (<= ?v_45 ?v_48)))) (or ?v_43 (and (<= ?v_46 ?v_47) (<= ?v_47 ?v_48)))) (or ?v_44 (and (<= ?v_46 ?v_49) (<= ?v_49 ?v_48)))) (<= x_49 x_50)) (<= x_49 x_51)) (<= x_49 x_52)) (<= x_50 ?v_50)) (<= x_51 ?v_50)) (<= x_52 ?v_50)) ?v_127) ?v_128) ?v_129) ?v_130) ?v_131) ?v_132) ?v_133) ?v_134) ?v_135) ?v_136) ?v_137) ?v_138) ?v_139) ?v_140) ?v_141) ?v_142) ?v_143) ?v_144) (<= x_65 x_49)) (<= x_65 x_66)) (<= x_65 x_67)) (<= x_65 x_68)) (<= x_66 ?v_57)) (<= x_67 ?v_57)) (<= x_68 ?v_57)) (<= x_69 x_49)) (<= x_70 x_49)) (<= x_71 x_49)) (<= (* (* ?v_59 999) (/ 1 1000)) ?v_58)) (<= (* (* ?v_61 999) (/ 1 1000)) ?v_60)) (<= (* (* ?v_63 999) (/ 1 1000)) ?v_62)) (<= ?v_58 (* (* ?v_59 1001) (/ 1 1000)))) (<= ?v_60 (* (* ?v_61 1001) (/ 1 1000)))) (<= ?v_62 (* (* ?v_63 1001) (/ 1 1000)))) (or (or (not (<= x_53 x_75)) (not (< x_75 ?v_64))) (= x_53 x_75))) (or (or (not (<= x_54 x_76)) (not (< x_76 ?v_65))) (= x_54 x_76))) (or (or (not (<= x_55 x_77)) (not (< x_77 ?v_66))) (= x_55 x_77))) (or (or (not (<= x_53 x_78)) (not (< x_78 ?v_64))) (= x_53 x_78))) (or (or (not (<= x_54 x_79)) (not (< x_79 ?v_65))) (= x_54 x_79))) (or (or (not (<= x_55 x_80)) (not (< x_80 ?v_66))) (= x_55 x_80))) (<= x_23 x_17)) (<= x_23 x_19)) (<= x_23 x_21)) (<= x_17 ?v_67)) (<= x_19 ?v_67)) (<= x_21 ?v_67)) (<= ?v_68 x_36)) (<= ?v_68 x_37)) (<= ?v_68 x_38)) (<= ?v_69 x_39)) (<= ?v_69 x_40)) (<= ?v_69 x_41)) (<= ?v_70 x_42)) (<= ?v_70 x_43)) (<= ?v_70 x_44)) (<= x_36 ?v_71)) (<= x_37 ?v_71)) (<= x_38 ?v_71)) (<= x_39 ?v_72)) (<= x_40 ?v_72)) (<= x_41 ?v_72)) (<= x_42 ?v_73)) (<= x_43 ?v_73)) (<= x_44 ?v_73)) (<= x_45 x_23)) (<= x_45 x_18)) (<= x_45 x_20)) (<= x_45 x_22)) (<= x_18 ?v_74)) (<= x_20 ?v_74)) (<= x_22 ?v_74)) (<= x_33 x_23)) (<= x_34 x_23)) (<= x_35 x_23)) (<= (* (* ?v_76 999) (/ 1 1000)) ?v_75)) (<= (* (* ?v_78 999) (/ 1 1000)) ?v_77)) (<= (* (* ?v_80 999) (/ 1 1000)) ?v_79)) (<= ?v_75 (* (* ?v_76 1001) (/ 1 1000)))) (<= ?v_77 (* (* ?v_78 1001) (/ 1 1000)))) (<= ?v_79 (* (* ?v_80 1001) (/ 1 1000)))) (or (or (not (<= x_11 x_10)) (not (< x_10 ?v_81))) ?v_84)) (or (or (not (<= x_14 x_13)) (not (< x_13 ?v_82))) ?v_111)) (or (or (not (<= x_16 x_15)) (not (< x_15 ?v_83))) ?v_120)) (or (or (not (<= x_11 x_46)) (not (< x_46 ?v_81))) ?v_88)) (or (or (not (<= x_14 x_47)) (not (< x_47 ?v_82))) ?v_114)) (or (or (not (<= x_16 x_48)) (not (< x_48 ?v_83))) ?v_123)) (= x_78 (+ x_75 x_1))) (= x_79 (+ x_76 x_1))) (= x_80 (+ x_77 x_1))) (= x_46 (+ x_10 x_1))) (= x_47 (+ x_13 x_1))) (= x_48 (+ x_15 x_1))) (= x_12 (+ x_0 x_1))) (or (and (and (and (and (and (and (and (and (and (and (and (and (and (and (and (and (and (and (and (and (and (and (and (and (and (and (and (and (and (and (and (and (and (and (and (and (and (< x_23 x_17) (< x_23 x_19)) (< x_23 x_21)) (< x_23 x_49)) (<= x_49 x_17)) (<= x_49 x_19)) (<= x_49 x_21)) (or (or (= x_49 x_17) (= x_49 x_19)) (= x_49 x_21))) ?v_118) ?v_96) ?v_103) ?v_90) ?v_97) ?v_104) ?v_87) ?v_98) ?v_105) ?v_119) ?v_99) ?v_106) ?v_93) ?v_100) ?v_107) ?v_92) ?v_101) ?v_108) ?v_94) ?v_102) ?v_109) (= x_56 x_36)) (= x_59 x_39)) (= x_62 x_42)) (= x_57 x_37)) (= x_60 x_40)) (= x_63 x_43)) (= x_58 x_38)) (= x_61 x_41)) (= x_64 x_44)) (and (and (and (and (and (and (and (and (and (and (and (and (and (and (and (and (and (and (and (or (or (and (and (and (and (and (and (and (and (and (and (and (and (and (and (and (and (and (and (= x_23 x_17) (<= ?v_110 x_50)) (<= x_50 ?v_67)) (or (or (and (and (and (and ?v_84 (<= (- ?v_86 1) ?v_85)) (<= ?v_85 (+ ?v_86 1))) ?v_91) ?v_87) (and (and (and ?v_88 (= x_53 (+ ?v_89 1))) (= x_75 (+ (+ x_10 x_4) x_1))) ?v_90)) (and (and (and ?v_95 ?v_91) ?v_90) ?v_87))) (or (or (and (and (and ?v_84 (= x_83 x_23)) ?v_92) ?v_93) (and (and (and ?v_88 (= x_69 x_23)) (= x_72 (- x_53 1))) ?v_94)) (and (and (and ?v_95 ?v_94) ?v_92) ?v_93))) ?v_96) ?v_97) ?v_98) ?v_99) ?v_100) ?v_101) ?v_102) ?v_103) ?v_104) ?v_105) ?v_106) ?v_107) ?v_108) ?v_109) (and (and (and (and (and (and (and (and (and (and (and (and (and (and (and (and (and (and (= x_23 x_19) (<= ?v_110 x_51)) (<= x_51 ?v_67)) (or (or (and (and (and (and ?v_111 (<= (- ?v_113 1) ?v_112)) (<= ?v_112 (+ ?v_113 1))) ?v_116) ?v_98) (and (and (and ?v_114 (= x_54 (+ ?v_115 1))) (= x_76 (+ (+ x_13 x_4) x_1))) ?v_97)) (and (and (and ?v_117 ?v_116) ?v_97) ?v_98))) (or (or (and (and (and ?v_111 (= x_84 x_23)) ?v_101) ?v_100) (and (and (and ?v_114 (= x_70 x_23)) (= x_73 (- x_54 1))) ?v_102)) (and (and (and ?v_117 ?v_102) ?v_101) ?v_100))) ?v_118) ?v_90) ?v_87) ?v_119) ?v_93) ?v_92) ?v_94) ?v_103) ?v_104) ?v_105) ?v_106) ?v_107) ?v_108) ?v_109)) (and (and (and (and (and (and (and (and (and (and (and (and (and (and (and (and (and (and (= x_23 x_21) (<= ?v_110 x_52)) (<= x_52 ?v_67)) (or (or (and (and (and (and ?v_120 (<= (- ?v_122 1) ?v_121)) (<= ?v_121 (+ ?v_122 1))) ?v_125) ?v_105) (and (and (and ?v_123 (= x_55 (+ ?v_124 1))) (= x_77 (+ (+ x_15 x_4) x_1))) ?v_104)) (and (and (and ?v_126 ?v_125) ?v_104) ?v_105))) (or (or (and (and (and ?v_120 (= x_82 x_23)) ?v_108) ?v_107) (and (and (and ?v_123 (= x_71 x_23)) (= x_74 (- x_55 1))) ?v_109)) (and (and (and ?v_126 ?v_109) ?v_108) ?v_107))) ?v_118) ?v_90) ?v_87) ?v_119) ?v_93) ?v_92) ?v_94) ?v_96) ?v_97) ?v_98) ?v_99) ?v_100) ?v_101) ?v_102)) ?v_127) ?v_128) ?v_129) ?v_130) ?v_131) ?v_132) ?v_133) ?v_134) ?v_135) ?v_136) ?v_137) ?v_138) ?v_139) ?v_140) ?v_141) ?v_142) ?v_143) ?v_144) (= x_49 x_23)))) (or (and (and (and (and (and (and (and (and (and (and (not ?v_145) (not ?v_146)) (not ?v_147)) (= x_65 x_49)) (= x_88 x_53)) (= x_89 x_54)) (= x_90 x_55)) (= x_66 x_50)) (= x_67 x_51)) (= x_68 x_52)) (= x_81 ?v_2)) (and (and (and (and (and (and (and (and (or (or ?v_145 ?v_146) ?v_147) (= x_81 x_0)) (= x_65 x_45)) (= x_66 x_18)) (= x_67 x_20)) (= x_68 x_22)) (= x_88 x_6)) (= x_89 x_7)) (= x_90 x_8)))) (or (or (or (or (or (or (or (or (or (or (or (or (or (or (or (or (or (or (or (or (or (or (or (or (or (or (or (or (or (or (or (or (or (or (or (or (not (<= ?v_148 x_88)) (not (<= ?v_148 x_89))) (not (<= ?v_148 x_90))) (not (<= x_88 ?v_149))) (not (<= x_89 ?v_149))) (not (<= x_90 ?v_149))) (not (<= (- x_88 x_88) x_3))) (not (<= (- x_89 x_88) x_3))) (not (<= (- x_90 x_88) x_3))) (not (<= (- x_88 x_89) x_3))) (not (<= (- x_89 x_89) x_3))) (not (<= (- x_90 x_89) x_3))) (not (<= (- x_88 x_90) x_3))) (not (<= (- x_89 x_90) x_3))) (not (<= (- x_90 x_90) x_3))) (and (or ?v_152 (not (<= x_53 ?v_150))) (not ?v_171))) (and (or ?v_153 (not (<= x_54 ?v_150))) (not ?v_175))) (and (or ?v_154 (not (<= x_55 ?v_150))) (not ?v_179))) (and (and ?v_152 ?v_153) ?v_154)) (and ?v_155 (or (not (<= (* (* ?v_157 999) (/ 1 1000)) ?v_156)) (not (<= ?v_156 (* (* ?v_157 1001) (/ 1 1000))))))) (and ?v_158 (or (not (<= (* (* ?v_160 999) (/ 1 1000)) ?v_159)) (not (<= ?v_159 (* (* ?v_160 1001) (/ 1 1000))))))) (and ?v_161 (or (not (<= (* (* ?v_163 999) (/ 1 1000)) ?v_162)) (not (<= ?v_162 (* (* ?v_163 1001) (/ 1 1000))))))) (and (and ?v_155 ?v_170) (or (or (< x_49 x_83) (not (<= (* (* ?v_165 999) (/ 1 1000)) ?v_164))) (not (<= ?v_164 (* (* ?v_165 1001) (/ 1 1000))))))) (and (and ?v_158 ?v_174) (or (or (< x_49 x_84) (not (<= (* (* ?v_167 999) (/ 1 1000)) ?v_166))) (not (<= ?v_166 (* (* ?v_167 1001) (/ 1 1000))))))) (and (and ?v_161 ?v_178) (or (or (< x_49 x_82) (not (<= (* (* ?v_169 999) (/ 1 1000)) ?v_168))) (not (<= ?v_168 (* (* ?v_169 1001) (/ 1 1000))))))) (and ?v_182 (or (not (<= x_85 (+ (+ (* (* (+ (+ (+ x_88 (* ?v_172 (/ 1 999))) x_90) (* ?v_173 (/ 1 999))) 1) (/ 1 2)) x_2) (/ 3001 1998)))) (< x_85 (- (- (* (* (+ (+ (+ x_88 (* ?v_172 (/ 1 1001))) x_90) (* ?v_173 (/ 1 1001))) 1) (/ 1 2)) x_2) (/ 1 2)))))) (and ?v_185 (or (not (<= x_86 (+ (+ (* (* (+ (+ (+ x_88 (* ?v_176 (/ 1 999))) x_90) (* ?v_177 (/ 1 999))) 1) (/ 1 2)) x_2) (/ 3001 1998)))) (< x_86 (- (- (* (* (+ (+ (+ x_88 (* ?v_176 (/ 1 1001))) x_90) (* ?v_177 (/ 1 1001))) 1) (/ 1 2)) x_2) (/ 1 2)))))) (and ?v_188 (or (not (<= x_87 (+ (+ (* (* (+ (+ (+ x_88 (* ?v_180 (/ 1 999))) x_90) (* ?v_181 (/ 1 999))) 1) (/ 1 2)) x_2) (/ 3001 1998)))) (< x_87 (- (- (* (* (+ (+ (+ x_88 (* ?v_180 (/ 1 1001))) x_90) (* ?v_181 (/ 1 1001))) 1) (/ 1 2)) x_2) (/ 1 2)))))) (and ?v_182 (or (not (<= (* (* ?v_184 999) (/ 1 1000)) ?v_183)) (not (<= ?v_183 (* (* ?v_184 1001) (/ 1 1000))))))) (and ?v_185 (or (not (<= (* (* ?v_187 999) (/ 1 1000)) ?v_186)) (not (<= ?v_186 (* (* ?v_187 1001) (/ 1 1000))))))) (and ?v_188 (or (not (<= (* (* ?v_190 999) (/ 1 1000)) ?v_189)) (not (<= ?v_189 (* (* ?v_190 1001) (/ 1 1000))))))) (and ?v_171 (not (= x_72 (+ x_85 x_1))))) (and ?v_175 (not (= x_73 (+ x_86 x_1))))) (and ?v_179 (not (= x_74 (+ x_87 x_1))))) (and ?v_171 (or (not (<= ?v_46 ?v_191)) (not (<= ?v_191 ?v_48))))) (and ?v_175 (or (not (<= ?v_46 ?v_192)) (not (<= ?v_192 ?v_48))))) (and ?v_179 (or (not (<= ?v_46 ?v_193)) (not (<= ?v_193 ?v_48)))))))))))))))))))))))))))))))
(check-sat)
(exit)
